n_res = 3;
rcap = [21, 86, 77];
rtype = [1, 2, 2];
n_tasks = 16;
modes = [ {1, 2, 3}, {4, 5, 6}, {7, 8, 9}, {10, 11, 12}, {13, 14, 15}, {16, 17, 18}, {19, 20, 21}, {22, 23, 24}, {25, 26, 27}, {28, 29, 30}, {31, 32, 33}, {34, 35, 36}, {37, 38, 39}, {40, 41, 42}, {43, 44, 45}, {46, 47, 48} ];
succ = [ {5}, {6, 11, 12}, {4, 7, 9}, {8, 11, 12}, {10, 15}, {8, 16}, {13, 16}, {13}, {10, 11, 13}, {12, 14}, {14, 15}, {16}, {14, 15}, {}, {}, {} ];
n_opt = 48;
dur = [5, 9, 10, 2, 7, 8, 3, 4, 9, 3, 8, 10, 7, 7, 10, 7, 9, 10, 1, 3, 6, 5, 6, 8, 7, 9, 10, 2, 3, 8, 3, 6, 10, 3, 5, 5, 1, 3, 7, 2, 3, 3, 4, 5, 5, 2, 3, 9];
rreq = [|  9,  7,  6,  9,  7,  3,  6,  5,  3,  6,  3,  2,  7,  8,  6,  4,  4,  3,  8,  7,  7,  2,  2,  2,  8,  7,  4,  8,  7,  5,  3,  2,  2,  6,  4,  3,  6,  3,  1,  5,  3,  4,  7,  4,  3,  9,  4,  3
        |  3,  3,  2,  9,  8,  8,  8,  7,  7,  5,  4,  1,  6,  7,  3,  7,  7,  4,  7,  5,  5,  8,  7,  7,  5,  5,  3,  5,  5,  4,  9,  8,  7,  8,  5,  6,  4,  3,  3,  4,  4,  2,  7,  5,  5,  5,  5,  4
        |  9,  7,  3, 10,  8,  5,  7,  5,  4,  3,  3,  3,  5,  4,  3,  9,  7,  7,  6,  5,  2,  5,  4,  2,  7,  5,  2,  8,  8,  6,  6,  4,  3,  7,  4,  4,  4,  2,  1,  5,  3,  3,  7,  2,  4,  3,  3,  2 |];
